0 0 0 0
0 1 2 0
0 2 2 0
0 3 2 0
0 4 0 7
0 5 0 13
0 6 1 13
0 7 0 15
0 8 0 16
0 9 2 9
0 10 1 7
0 11 2 7
0 12 0 17
0 13 2 19
0 14 2 14
0 15 2 21
0 16 1 27
0 17 2 19
0 18 0 24
0 19 0 21
0 20 1 14
0 21 2 26
0 22 0 27
0 23 1 22
0 24 0 25
0 25 1 30
0 26 2 27
0 27 2 26
0 28 1 37
0 29 1 37
0 30 2 37
0 31 0 42
